data;

param W := 30;

param alpha := 10;
param beta := 0.05;

param discount = 0.9;

param Ch1 := 8;
param Ch2 :=10;
param Cl1 :=0;
param Cl2 :=2;

param:  s1:=
		low     0
		high    8
;
		
param: s2:=
	 low 10
     high 50
;
	
param Pmin := 0.8;
param Pmax := 0.8;

